%%% static parameters %%%
timespan = 1;
Clients_N = [4000];
Demand_W = [15];
Lt0 = [4];
Lt1 = [4];
SS_ = [0.85];
DS_D = [20];
K = [200];
MA = [500];
HC = [0.05];
%%% dynamic parameters %%%
lost_ratio_sales_ret_th = 0.00030841346469774004;
lost_ratio_sales_ret_w = 19;
lost_ratio_sales_dis_th = 0.0005403041971312565;
lost_ratio_sales_dis_w = 60;
lost_ratio_sales_fac_th = 0.00027075418853107416;
lost_ratio_sales_fac_w = 34;
stock_customer_MA_mean_relative_th = 0.9981799955668474;
stock_customer_MA_mean_relative_w = 61;
stock_distributor_MA_mean_relative_th = 0.7324588062492339;
stock_distributor_MA_mean_relative_w = 75;
stock_retailer_MA_mean_relative_th = 0.6300250298720843;
stock_retailer_MA_mean_relative_w = 25;
stock_factory_MA_mean_relative_th = 0.5081681086013857;
stock_factory_MA_mean_relative_w = 35;
